 vasp.6.4.2 20Jul23 (build Sep 12 2023 18:06:52) complex

 executed on             LinuxGNU date 2025.02.17  16:06:52

 INCAR:
   SYSTEM = DOS
   ISTART = 1
   NSW = 0
   NELM = 200
   ISMEAR = -1
   ISPIN = 2
   IBRION = 2
   ISIF = 0
   ISYM = -1
   SYMPREC = 1E-3
   SIGMA = 0.027
   LREAL = AUTO
   EDIFF = 1E-6
   EDIFFG = -0.05
   ENCUT = 600
   NCORE = 16
   MAGMOM = 4 3 3 4 10*0
   LASPH = .TRUE.
   NWRITE = 2
   PREC = ACCURATE
   IALGO = 58
   LWAVE = .TRUE.
   LORBIT = 10
   ICHARG = 11
   NEDOS = 3000
   EMIN = -9
   EMAX = 9

 POTCAR:    PAW_PBE Cr 06Sep2000
 POTCAR:    PAW_PBE F 08Apr2002
 POTCAR:    PAW_PBE Cr 06Sep2000
   VRHFIN =Cr : d5 s1

   TITEL  = PAW_PBE Cr 06Sep2000
   POMASS =   51.996; ZVAL   =    6.000    mass and valenz
   ENMAX  =  227.080; ENMIN  =  170.310 eV

 POTCAR:    PAW_PBE F 08Apr2002
   VRHFIN =F: s2p5

   TITEL  = PAW_PBE F 08Apr2002
   POMASS =   18.998; ZVAL   =    7.000    mass and valenz
   ENMAX  =  400.000; ENMIN  =  300.000 eV

 Optimization of the real space projectors (new method)

 maximal supplied QI-value         = 15.12
 optimisation between [QCUT,QGAM] = [ 12.55, 25.10] = [ 44.09,176.36] Ry
 Optimized for a Real-space Cutoff    1.47 Angstroem

   l    n(q)    QCUT    max X(q) W(low)/X(q) W(high)/X(q)  e(spline)
   2     10    12.548    94.395    0.25E-03    0.13E-03    0.45E-06
   2     10    12.548    88.078    0.25E-03    0.13E-03    0.45E-06
   0     11    12.548    50.173    0.67E-04    0.23E-04    0.97E-06
   0     11    12.548    24.906    0.59E-04    0.20E-04    0.85E-06
   1     11    12.548    12.133    0.11E-03    0.12E-03    0.34E-06
   1     11    12.548     7.290    0.75E-04    0.88E-04    0.25E-06
 Optimization of the real space projectors (new method)

 maximal supplied QI-value         = 24.76
 optimisation between [QCUT,QGAM] = [ 12.38, 25.00] = [ 42.90,175.06] Ry
 Optimized for a Real-space Cutoff    1.16 Angstroem

   l    n(q)    QCUT    max X(q) W(low)/X(q) W(high)/X(q)  e(spline)
   0      9    12.378    14.049    0.11E-03    0.38E-05    0.23E-06
   0      9    12.378     8.945    0.15E-03    0.56E-05    0.30E-06
   1      8    12.378     7.086    0.18E-03    0.14E-03    0.29E-06
   1      8    12.378     6.747    0.16E-03    0.13E-03    0.26E-06
|               ----> ADVICE to this user running VASP <----                  |
|     You enforced a specific xc type in the INCAR file but a different       |
|     type was found in the POTCAR file.                                      |
|     I HOPE YOU KNOW WHAT YOU ARE DOING!                                     |

  PAW_PBE Cr 06Sep2000                  :
  PAW_PBE F 08Apr2002                   :

 POSCAR: DOS
  positions in direct lattice
  velocities in cartesian coordinates
 exchange correlation table for  LEXCH =       99
   RHO(1)=    0.500       N(1)  =     2000
   RHO(2)=  100.500       N(2)  =     4000

 ion  position               nearest neighbor table
   1  0.500  0.000  1.000-  14 1.96   5 1.96  11 1.99   8 1.99
   2  0.000  0.500  0.000-  14 1.93   5 1.93   7 1.96  12 1.96  13 1.97   6 1.97
   3  0.500  1.000  0.500-   9 1.93  10 1.93   7 1.96  12 1.96  11 1.97   8 1.97
   4  1.000  0.500  0.500-  10 1.96   9 1.96   6 1.99  13 1.99
   5  0.818  0.815  0.040-   2 1.93   1 1.96
   6  0.866  0.415  0.184-   2 1.97   4 1.99
   7  0.314  0.686  0.250-   2 1.96   3 1.96
   8  0.585  0.134  0.316-   3 1.97   1 1.99
   9  0.185  0.182  0.461-   3 1.93   4 1.96
  10  0.815  0.818  0.539-   3 1.93   4 1.96
  11  0.415  0.866  0.684-   3 1.97   1 1.99
  12  0.686  0.314  0.750-   2 1.96   3 1.96
  13  0.134  0.585  0.816-   2 1.97   4 1.99
  14  0.182  0.185  0.960-   2 1.93   1 1.96

IMPORTANT INFORMATION: All symmetrisations will be switched off!
NOSYMM: (Re-)initialisation of all symmetry stuff for point group C_1.

                                     Primitive cell

  volume of cell :     191.4417

  direct lattice vectors                    reciprocal lattice vectors
     5.556037718  0.290534409  0.132275360     0.178420420 -0.006075064  0.079035350
     0.129837541  5.561800485  0.134403458    -0.011198775  0.178147880  0.079098089
    -2.787488731 -2.871207633  6.071993649    -0.003638915 -0.003810958  0.161217974

  length of vectors
     5.565200997  5.564939058  7.272072165     0.195236624  0.195239820  0.161304061

  position of ions in fractional coordinates (direct lattice)
     0.499976487  0.000020313  0.999996114
     0.000020417  0.499985256  0.000002261
     0.499988192  0.999983892  0.499996081
     0.999983221  0.500026137  0.499999946
     0.818269860  0.814670232  0.039682409
     0.866326920  0.414585299  0.183778897
     0.314013801  0.685963033  0.250003849
     0.585006025  0.133935792  0.316187499
     0.185248942  0.181697363  0.460752333
     0.814762722  0.818285048  0.539259791
     0.415005236  0.866071190  0.683812640
     0.685990206  0.314044415  0.749993761
     0.133675929  0.585413510  0.816220140
     0.181751579  0.185318504  0.960314660

  ion indices of the primitive-cell ions
   primitive index   ion index
                 1           1
                 2           2
                 3           3
                 4           4
                 5           5
                 6           6
                 7           7
                 8           8
                 9           9
                10          10
                11          11
                12          12
                13          13
                14          14

 KPOINTS: K-Points

Automatic generation of k-mesh.
 Grid dimensions read from file:
 generate k-points for:    4    4    4

 Generating k-lattice:

  Cartesian coordinates                     Fractional coordinates (reciprocal lattice)
     0.044605105 -0.001518766  0.019758837     0.250000000 -0.000000000 -0.000000000
    -0.002799694  0.044536970  0.019774522     0.000000000  0.250000000  0.000000000
    -0.000909729 -0.000952739  0.040304493    -0.000000000  0.000000000  0.250000000

  Length of vectors
     0.048809156  0.048809955  0.040326015

  Shift w.r.t. Gamma in fractional coordinates (k-lattice)
     0.000000000  0.000000000  0.000000000

 Subroutine IBZKPT returns following result:

 Found     64 irreducible k-points:

 Following reciprocal coordinates:
            Coordinates               Weight
  0.000000  0.000000  0.000000      1.000000
  0.250000  0.000000 -0.000000      1.000000
  0.500000  0.000000 -0.000000      1.000000
 -0.250000 -0.000000  0.000000      1.000000
 -0.000000  0.250000  0.000000      1.000000
  0.250000  0.250000  0.000000      1.000000
  0.500000  0.250000 -0.000000      1.000000
 -0.250000  0.250000 -0.000000      1.000000
 -0.000000  0.500000 -0.000000      1.000000
  0.250000  0.500000 -0.000000      1.000000
  0.500000  0.500000  0.000000      1.000000
 -0.250000  0.500000  0.000000      1.000000
  0.000000 -0.250000 -0.000000      1.000000
  0.250000 -0.250000  0.000000      1.000000
  0.500000 -0.250000 -0.000000      1.000000
 -0.250000 -0.250000 -0.000000      1.000000
 -0.000000  0.000000  0.250000      1.000000
  0.250000  0.000000  0.250000      1.000000
  0.500000  0.000000  0.250000      1.000000
 -0.250000 -0.000000  0.250000      1.000000
 -0.000000  0.250000  0.250000      1.000000
  0.250000  0.250000  0.250000      1.000000
  0.500000  0.250000  0.250000      1.000000
 -0.250000  0.250000  0.250000      1.000000
 -0.000000  0.500000  0.250000      1.000000
  0.250000  0.500000  0.250000      1.000000
  0.500000  0.500000  0.250000      1.000000
 -0.250000  0.500000  0.250000      1.000000
  0.000000 -0.250000  0.250000      1.000000
  0.250000 -0.250000  0.250000      1.000000
  0.500000 -0.250000  0.250000      1.000000
 -0.250000 -0.250000  0.250000      1.000000
 -0.000000  0.000000  0.500000      1.000000
  0.250000  0.000000  0.500000      1.000000
  0.500000  0.000000  0.500000      1.000000
 -0.250000  0.000000  0.500000      1.000000
 -0.000000  0.250000  0.500000      1.000000
  0.250000  0.250000  0.500000      1.000000
  0.500000  0.250000  0.500000      1.000000
 -0.250000  0.250000  0.500000      1.000000
 -0.000000  0.500000  0.500000      1.000000
  0.250000  0.500000  0.500000      1.000000
  0.500000  0.500000  0.500000      1.000000
 -0.250000  0.500000  0.500000      1.000000
  0.000000 -0.250000  0.500000      1.000000
  0.250000 -0.250000  0.500000      1.000000
  0.500000 -0.250000  0.500000      1.000000
 -0.250000 -0.250000  0.500000      1.000000
  0.000000 -0.000000 -0.250000      1.000000
  0.250000  0.000000 -0.250000      1.000000
  0.500000 -0.000000 -0.250000      1.000000
 -0.250000 -0.000000 -0.250000      1.000000
 -0.000000  0.250000 -0.250000      1.000000
  0.250000  0.250000 -0.250000      1.000000
  0.500000  0.250000 -0.250000      1.000000
 -0.250000  0.250000 -0.250000      1.000000
 -0.000000  0.500000 -0.250000      1.000000
  0.250000  0.500000 -0.250000      1.000000
  0.500000  0.500000 -0.250000      1.000000
 -0.250000  0.500000 -0.250000      1.000000
  0.000000 -0.250000 -0.250000      1.000000
  0.250000 -0.250000 -0.250000      1.000000
  0.500000 -0.250000 -0.250000      1.000000
 -0.250000 -0.250000 -0.250000      1.000000

 Following cartesian coordinates:
            Coordinates               Weight
  0.000000  0.000000  0.000000      1.000000
  0.044605 -0.001519  0.019759      1.000000
  0.089210 -0.003038  0.039518      1.000000
 -0.044605  0.001519 -0.019759      1.000000
 -0.002800  0.044537  0.019775      1.000000
  0.041805  0.043018  0.039533      1.000000
  0.086411  0.041499  0.059292      1.000000
 -0.047405  0.046056  0.000016      1.000000
 -0.005599  0.089074  0.039549      1.000000
  0.039006  0.087555  0.059308      1.000000
  0.083611  0.086036  0.079067      1.000000
 -0.050204  0.090593  0.019790      1.000000
  0.002800 -0.044537 -0.019775      1.000000
  0.047405 -0.046056 -0.000016      1.000000
  0.092010 -0.047575  0.019743      1.000000
 -0.041805 -0.043018 -0.039533      1.000000
 -0.000910 -0.000953  0.040304      1.000000
  0.043695 -0.002472  0.060063      1.000000
  0.088300 -0.003990  0.079822      1.000000
 -0.045515  0.000566  0.020546      1.000000
 -0.003709  0.043584  0.060079      1.000000
  0.040896  0.042065  0.079838      1.000000
  0.085501  0.040547  0.099597      1.000000
 -0.048315  0.045103  0.040320      1.000000
 -0.006509  0.088121  0.079854      1.000000
  0.038096  0.086602  0.099612      1.000000
  0.082701  0.085084  0.119371      1.000000
 -0.051114  0.089640  0.060095      1.000000
  0.001890 -0.045490  0.020530      1.000000
  0.046495 -0.047008  0.040289      1.000000
  0.091100 -0.048527  0.060048      1.000000
 -0.042715 -0.043971  0.000771      1.000000
 -0.001819 -0.001905  0.080609      1.000000
  0.042786 -0.003424  0.100368      1.000000
  0.087391 -0.004943  0.120127      1.000000
 -0.046425 -0.000387  0.060850      1.000000
 -0.004619  0.042631  0.100384      1.000000
  0.039986  0.041113  0.120142      1.000000
  0.084591  0.039594  0.139901      1.000000
 -0.049224  0.044150  0.080625      1.000000
 -0.007419  0.087168  0.120158      1.000000
  0.037186  0.085650  0.139917      1.000000
[...]
 k-point  60 :  -0.2500 0.5000-0.2500  plane waves:    6390
 k-point  61 :   0.0000-0.2500-0.2500  plane waves:    6390
 k-point  62 :   0.2500-0.2500-0.2500  plane waves:    6400
 k-point  63 :   0.5000-0.2500-0.2500  plane waves:    6390
 k-point  64 :  -0.2500-0.2500-0.2500  plane waves:    6374

 maximum and minimum number of plane-waves per node :       421      378

 maximum number of plane-waves:      6402
 maximum index in each direction:
   IXMAX=   11   IYMAX=   11   IZMAX=   14
   IXMIN=  -11   IYMIN=  -11   IZMIN=  -15

 real space projection operators:
  max/ min on nodes  :        524.84        498.98

 parallel 3D FFT for wavefunctions:
    minimum data exchange during FFTs selected (reduces bandwidth)
 parallel 3D FFT for charge:
    minimum data exchange during FFTs selected (reduces bandwidth)

 initial charge density was supplied:
 number of electron      94.0000007 magnetization      14.0000006
 keeping initial charge density in first step

 Maximum index for non-local projection operator          684
 Maximum index for augmentation-charges         1261 (set IRDMAX)

 First call to EWALD:  gamma=   0.308
 Maximum number of real-space cells 3x 3x 3
 Maximum number of reciprocal cells 3x 3x 3

--------------------------------------- Ionic step        1  -------------------------------------------

--------------------------------------- Iteration      1(   1)  ---------------------------------------

 eigenvalue-minimisations  :     0
 total energy-change (2. order) :-0.8625563E+02  (-0.1724624E-01)
 number of electron      94.0000007 magnetization      14.0000006
 augmentation part       94.0000007 magnetization      14.0000006

 Free energy of the ion-electron system (eV)
  alpha Z        PSCENC =       258.48617143
  Ewald energy   TEWEN  =     -5009.94991771
  -Hartree energ DENC   =     -2668.42037006
  -exchange      EXHF   =         0.00000000
  -V(xc)+E(xc)   XCENC  =       304.00139078
  PAW double counting   =      7610.69684549    -7568.74993388
  entropy T*S    EENTRO =        -0.00080688
  eigenvalues    EBANDS =      -710.08469821
  atomic energy  EATOM  =      7697.76524756
  free energy    TOTEN  =       -86.25563223 eV

  energy without entropy =      -86.25482536  energy(sigma->0) =      -86.25522879

[...]

--------------------------------------- Iteration      1(  10)  ---------------------------------------

 eigenvalue-minimisations  :     0
 total energy-change (2. order) :-0.4834942E-06  (-0.7634054E-07)
 number of electron      94.0000007 magnetization      14.0000006
 augmentation part       94.0000007 magnetization      14.0000006

 Free energy of the ion-electron system (eV)
  alpha Z        PSCENC =       258.48617143
  Ewald energy   TEWEN  =     -5009.94991771
  -Hartree energ DENC   =     -2668.42037006
  -exchange      EXHF   =         0.00000000
  -V(xc)+E(xc)   XCENC  =       304.00139078
  PAW double counting   =      7610.69684549    -7568.74993388
  entropy T*S    EENTRO =        -0.00426057
  eigenvalues    EBANDS =      -710.11771772
  atomic energy  EATOM  =      7697.76524756
  free energy    TOTEN  =       -86.29254452 eV

  energy without entropy =      -86.28828396  energy(sigma->0) =      -86.29041424

  average scaling for gradient   0.6948

 average (electrostatic) potential at core
  the test charge radii are     1.1394  0.7167
  (the norm of the test charge is              1.0000)
       1 -47.0326       2 -48.7087       3 -48.7090       4 -47.0322       5 -78.9573
       6 -79.2405       7 -79.3159       8 -79.2400       9 -78.9571      10 -78.9582
      11 -79.2408      12 -79.3148      13 -79.2404      14 -78.9598

 E-fermi :   1.2448     XC(G=0):  -9.1289     alpha+bet : -7.3287

 Fermi energy:         1.2448231349

 spin component 1

 k-point     1 :       0.0000    0.0000    0.0000
  band No.  band energies     occupation
      1     -23.2419      1.00000
      2     -22.8455      1.00000
      3     -22.8215      1.00000
      4     -22.7716      1.00000
      5     -22.7169      1.00000
      6     -22.6496      1.00000
      7     -22.6260      1.00000
      8     -22.5579      1.00000
      9     -22.4264      1.00000
     10     -22.3883      1.00000
     11      -6.6283      1.00000
     12      -6.5046      1.00000
     13      -6.2443      1.00000
     14      -6.0136      1.00000
     15      -6.0091      1.00000
     16      -5.4198      1.00000
     17      -5.3331      1.00000
     18      -5.2717      1.00000
     19      -5.2107      1.00000
     20      -5.1674      1.00000
     21      -4.9284      1.00000
     22      -4.8479      1.00000
     23      -4.8396      1.00000
     24      -4.4940      1.00000
     25      -4.4133      1.00000
     26      -4.3486      1.00000
     27      -3.9791      1.00000
     28      -3.8853      1.00000
     29      -3.7786      1.00000
     30      -3.7644      1.00000
     31      -3.7209      1.00000
     32      -3.6887      1.00000
     33      -3.4861      1.00000
     34      -3.4489      1.00000
     35      -3.3046      1.00000
     36      -3.1909      1.00000
     37      -3.1579      1.00000
     38      -3.1117      1.00000
     39      -2.9270      1.00000
     40      -2.7286      1.00000
     41      -0.6356      1.00000
     42      -0.4514      1.00000
     43      -0.3379      1.00000
     44      -0.1671      1.00000
     45       0.0346      1.00000
     46       0.1185      1.00000
     47       0.4754      1.00000
     48       0.6490      1.00000
     49       0.6784      1.00000
     50       0.7608      1.00000
     51       0.9390      0.99999
     52       1.0186      0.99977
     53       1.0648      0.99873
     54       1.1500      0.97101
     55       1.4023      0.00292
     56       1.7467      0.00000
     57       2.0353      0.00000
     58       2.3676      0.00000
     59       3.4929      0.00000
     60       3.6493      0.00000
     61       4.6174      0.00000
     62       8.2622      0.00000
     63       8.5474      0.00000
     64       8.6030      0.00000

[...]

 k-point    64 :      -0.2500   -0.2500   -0.2500
  band No.  band energies     occupation
      1     -23.0837      1.00000
      2     -22.9982      1.00000
      3     -22.8597      1.00000
      4     -22.7718      1.00000
      5     -22.6942      1.00000
      6     -22.6930      1.00000
      7     -22.5756      1.00000
      8     -22.5469      1.00000
      9     -22.4404      1.00000
     10     -22.3899      1.00000
     11      -6.5346      1.00000
     12      -6.3042      1.00000
     13      -6.2097      1.00000
     14      -5.9322      1.00000
     15      -5.8943      1.00000
     16      -5.4990      1.00000
     17      -5.4898      1.00000
     18      -5.2959      1.00000
     19      -5.1535      1.00000
     20      -4.9387      1.00000
     21      -4.9329      1.00000
     22      -4.8114      1.00000
     23      -4.8099      1.00000
     24      -4.7542      1.00000
     25      -4.6069      1.00000
     26      -4.2663      1.00000
     27      -4.1837      1.00000
     28      -4.1733      1.00000
     29      -3.8373      1.00000
     30      -3.7904      1.00000
     31      -3.6485      1.00000
     32      -3.5876      1.00000
     33      -3.5447      1.00000
     34      -3.3794      1.00000
     35      -3.3533      1.00000
     36      -3.2384      1.00000
     37      -3.1769      1.00000
     38      -3.0962      1.00000
     39      -3.0854      1.00000
     40      -2.7838      1.00000
     41      -0.4277      1.00000
     42      -0.3869      1.00000
     43      -0.3008      1.00000
     44      -0.0348      1.00000
     45      -0.0130      1.00000
     46       0.0743      1.00000
     47       0.6067      1.00000
     48       0.6510      1.00000
     49       0.7689      1.00000
     50       0.8404      1.00000
     51       0.9761      0.99995
     52       1.0584      0.99900
     53       1.0891      0.99688
     54       1.1754      0.92886
     55       1.4751      0.00020
     56       1.6418      0.00000
     57       2.0028      0.00000
     58       2.4372      0.00000
     59       2.9426      0.00000
     60       3.5453      0.00000
     61       6.4879      0.00000
     62       6.6538      0.00000
     63       7.5952      0.00000
     64       8.5435      0.00000
 Fermi energy:         1.2448231349

 spin component 2

[...]

 k-point    64 :      -0.2500   -0.2500   -0.2500
  band No.  band energies     occupation
      1     -23.0300      1.00000
      2     -22.9516      1.00000
      3     -22.8202      1.00000
      4     -22.7271      1.00000
      5     -22.6637      1.00000
      6     -22.6602      1.00000
      7     -22.5274      1.00000
      8     -22.4991      1.00000
      9     -22.3904      1.00000
     10     -22.3403      1.00000
     11      -6.3250      1.00000
     12      -5.9801      1.00000
     13      -5.8444      1.00000
     14      -5.6559      1.00000
     15      -5.5350      1.00000
     16      -5.3649      1.00000
     17      -5.2090      1.00000
     18      -4.9753      1.00000
     19      -4.9341      1.00000
     20      -4.7508      1.00000
     21      -4.7388      1.00000
     22      -4.7223      1.00000
     23      -4.5373      1.00000
     24      -4.4371      1.00000
     25      -4.3475      1.00000
     26      -4.0569      1.00000
     27      -4.0049      1.00000
     28      -3.9061      1.00000
     29      -3.6721      1.00000
     30      -3.6551      1.00000
     31      -3.4666      1.00000
     32      -3.4277      1.00000
     33      -3.3616      1.00000
     34      -3.2358      1.00000
     35      -3.1902      1.00000
     36      -3.1271      1.00000
     37      -3.0306      1.00000
     38      -2.9843      1.00000
     39      -2.9566      1.00000
     40      -2.6594      1.00000
     41       2.5722      0.00000
     42       2.6104      0.00000
     43       2.7629      0.00000
     44       2.8823      0.00000
     45       2.8842      0.00000
     46       3.0037      0.00000
     47       3.4937      0.00000
     48       3.6617      0.00000
     49       3.7927      0.00000
     50       4.1592      0.00000
     51       4.2089      0.00000
     52       4.2402      0.00000
     53       4.3130      0.00000
     54       4.3979      0.00000
     55       4.4073      0.00000
     56       4.5459      0.00000
     57       4.5597      0.00000
     58       4.6044      0.00000
     59       5.2853      0.00000
     60       5.8233      0.00000
     61       7.3481      0.00000
     62       7.5287      0.00000
     63       8.8924      0.00000
     64       9.0129      0.00000

 soft charge-density along one line, spin component           1
         0         1         2         3         4         5         6         7         8         9
 total charge-density along one line

 soft charge-density along one line, spin component           2
         0         1         2         3         4         5         6         7         8         9
 total charge-density along one line

------------------------ aborting loop because EDIFF is reached ----------------------------------------

 total charge

# of ion       s       p       d       tot
    1        0.269   0.367   4.159   4.796
    2        0.338   0.582   4.200   5.120
    3        0.338   0.582   4.200   5.119
    4        0.270   0.368   4.159   4.796
    5        1.728   4.367   0.000   6.095
    6        1.730   4.355   0.000   6.086
    7        1.730   4.365   0.000   6.095
    8        1.730   4.355   0.000   6.086
    9        1.728   4.367   0.000   6.095
   10        1.728   4.367   0.000   6.095
   11        1.730   4.355   0.000   6.086
   12        1.730   4.365   0.000   6.095
   13        1.730   4.355   0.000   6.086
   14        1.728   4.367   0.000   6.095
tot         18.509  45.518  16.718  80.746

 magnetization (x)

[...]

 VOLUME and BASIS-vectors are now :
  energy-cutoff  :      600.00
  volume of cell :      191.44
      direct lattice vectors                 reciprocal lattice vectors
     5.556037718  0.290534409  0.132275360     0.178420420 -0.006075064  0.079035350
     0.129837541  5.561800485  0.134403458    -0.011198775  0.178147880  0.079098089
    -2.787488731 -2.871207633  6.071993649    -0.003638915 -0.003810958  0.161217974

  length of vectors
     5.565200997  5.564939058  7.272072165     0.195236624  0.195239820  0.161304061

 FORCES acting on ions
    electron-ion (+dipol)            ewald-force                    non-local-force                 convergence-correction
   -.580E-01 0.351E-01 -.162E-01   0.579E-01 -.356E-01 0.168E-01   0.275E-02 -.213E-02 -.217E-04   0.150E-02 0.875E-04 0.608E-03
   0.103E-01 0.523E-02 0.236E-02   -.130E-01 -.304E-02 -.328E-02   -.587E-03 -.224E-03 -.152E-03   0.800E-03 0.496E-03 0.459E-03
   -.305E-01 -.160E-01 -.794E-04   0.288E-01 0.181E-01 0.570E-03   0.188E-02 0.668E-03 0.202E-03   0.123E-02 -.433E-03 0.105E-03
   -.368E-01 0.531E-01 0.126E-01   0.359E-01 -.527E-01 -.124E-01   0.249E-02 -.355E-02 -.203E-03   0.549E-03 -.301E-03 -.379E-03
   0.165E+02 -.523E+02 -.138E+02   -.912E+01 0.585E+02 0.202E+02   -.558E+01 -.796E+01 -.644E+01   -.187E+01 0.181E+01 0.873E-02
   0.756E+02 0.275E+02 0.475E+01   -.844E+02 -.314E+02 -.126E+02   0.102E+02 0.531E+01 0.621E+01   -.145E+01 -.144E+01 0.168E+01
   -.564E+02 0.548E+02 0.353E-01   0.639E+02 -.620E+02 -.334E-01   -.819E+01 0.795E+01 0.556E-03   0.782E+00 -.761E+00 -.257E-02
   -.249E+02 -.766E+02 -.466E+01   0.286E+02 0.856E+02 0.125E+02   -.499E+01 -.104E+02 -.622E+01   0.140E+01 0.148E+01 -.167E+01
   0.528E+02 -.149E+02 0.137E+02   -.587E+02 0.729E+01 -.201E+02   0.784E+01 0.585E+01 0.637E+01   -.187E+01 0.181E+01 0.482E-02
   -.527E+02 0.149E+02 -.137E+02   0.587E+02 -.719E+01 0.201E+02   -.783E+01 -.587E+01 -.637E+01   0.187E+01 -.181E+01 -.362E-02
   0.249E+02 0.767E+02 0.463E+01   -.286E+02 -.856E+02 -.125E+02   0.498E+01 0.104E+02 0.621E+01   -.139E+01 -.149E+01 0.167E+01
   0.564E+02 -.548E+02 -.183E-01   -.639E+02 0.620E+02 0.156E-01   0.819E+01 -.796E+01 0.550E-02   -.779E+00 0.769E+00 -.402E-02
   -.756E+02 -.274E+02 -.474E+01   0.844E+02 0.314E+02 0.126E+02   -.102E+02 -.531E+01 -.621E+01   0.145E+01 0.143E+01 -.168E+01
   -.165E+02 0.523E+02 0.138E+02   0.905E+01 -.584E+02 -.202E+02   0.559E+01 0.796E+01 0.645E+01   0.186E+01 -.182E+01 -.776E-02
   -.253E-01 0.183E-01 0.109E-02   0.249E-13 -.497E-13 -.107E-13   0.299E-01 -.220E-01 -.881E-03   -.555E-02 0.461E-02 -.106E-03

 POSITION                                       TOTAL-FORCE (eV/Angst)
     -0.00959     -2.72582      6.13811         0.004300     -0.002618      0.001248
      0.06502      2.78082      0.06722        -0.002409      0.002398     -0.000615
      1.51406      4.27138      3.23651         0.001402      0.002348      0.000790
      4.22712      1.63597      3.23547         0.002223     -0.003531     -0.000347
      4.54150      4.65483      0.45868        -0.015800      0.018386      0.013628
      4.35489      2.02987      1.28622        -0.067113     -0.076538      0.029705
      1.13685      3.18861      1.65175         0.011147     -0.010496     -0.000196
      2.38634      0.00705      2.01527         0.073933      0.068383     -0.029776
     -0.23150     -0.25853      2.84661        -0.016391      0.013122     -0.012492
      3.12992      3.23953      3.49214         0.013483     -0.009530      0.013119
      0.51211      2.97412      4.32340        -0.074314     -0.069672      0.030302
      1.76156     -0.20743      4.68691        -0.009879      0.010638     -0.001282
     -1.45649      0.95125      5.05245         0.067177      0.075881     -0.029812
     -1.64299     -1.67375      5.87997         0.012241     -0.018769     -0.014273
    total drift:                               -0.000952      0.000882      0.000107

  FREE ENERGIE OF THE ION-ELECTRON SYSTEM (eV)
  free  energy   TOTEN  =       -86.29254452 eV

  energy  without entropy=      -86.28828396  energy(sigma->0) =      -86.29041424

 writing wavefunctions

 total charge

[...]

 magnetization (x)

# of ion       s       p       d       tot
    1        0.056   0.021   3.516   3.594
    2        0.015   0.023   2.986   3.024
    3        0.015   0.023   2.986   3.024
    4        0.056   0.021   3.516   3.593
    5        0.000   0.017   0.000   0.017
    6        0.003   0.002   0.000   0.005
    7        0.002   0.018   0.000   0.019
    8        0.003   0.002   0.000   0.005
    9        0.000   0.017   0.000   0.017
   10        0.000   0.017   0.000   0.017
   11        0.003   0.002   0.000   0.005
   12        0.002   0.017   0.000   0.019
   13        0.003   0.002   0.000   0.005
   14        0.000   0.017   0.000   0.017
tot          0.158   0.200  13.004  13.362